FourierSAT_Github_AIJ/benchmarks/MAXSAT_benchmarks/1/abrame-habet/v180/s2v180c1300-2.cnf
c Generated after 1 tries
c Graph with 180 nodes and 650 edges, Max edges:16110
c generated from an undirected graph
c to solve unweighted MaxCut
p cnf 180 1300
1 75 0
-1 -75 0
1 79 0
-1 -79 0
1 100 0
-1 -100 0
1 116 0
-1 -116 0
1 129 0
-1 -129 0
1 142 0
-1 -142 0
1 143 0
-1 -143 0
1 167 0
-1 -167 0
2 5 0
-2 -5 0
2 10 0
-2 -10 0
2 28 0
-2 -28 0
2 34 0
-2 -34 0
2 83 0
-2 -83 0
2 111 0
-2 -111 0
2 148 0
-2 -148 0
2 154 0
-2 -154 0
3 23 0
-3 -23 0
3 136 0
-3 -136 0
3 139 0
-3 -139 0
3 140 0
-3 -140 0
3 169 0
-3 -169 0
4 27 0
-4 -27 0
4 50 0
-4 -50 0
4 52 0
-4 -52 0
4 97 0
-4 -97 0
4 104 0
-4 -104 0
4 128 0
-4 -128 0
4 168 0
-4 -168 0
5 10 0
-5 -10 0
5 11 0
-5 -11 0
5 50 0
-5 -50 0
5 61 0
-5 -61 0
5 74 0
-5 -74 0
5 75 0
-5 -75 0
5 156 0
-5 -156 0
5 165 0
-5 -165 0
5 167 0
-5 -167 0
6 11 0
-6 -11 0
6 61 0
-6 -61 0
6 68 0
-6 -68 0
6 74 0
-6 -74 0
6 96 0
-6 -96 0
6 101 0
-6 -101 0
6 132 0
-6 -132 0
6 167 0
-6 -167 0
7 27 0
-7 -27 0
7 45 0
-7 -45 0
7 65 0
-7 -65 0
7 125 0
-7 -125 0
7 168 0
-7 -168 0
8 21 0
-8 -21 0
8 34 0
-8 -34 0
8 99 0
-8 -99 0
9 10 0
-9 -10 0
9 36 0
-9 -36 0
9 46 0
-9 -46 0
9 48 0
-9 -48 0
9 78 0
-9 -78 0
9 92 0
-9 -92 0
9 104 0
-9 -104 0
9 126 0
-9 -126 0
9 138 0
-9 -138 0
9 159 0
-9 -159 0
9 173 0
-9 -173 0
9 177 0
-9 -177 0
10 22 0
-10 -22 0
10 24 0
-10 -24 0
10 28 0
-10 -28 0
10 59 0
-10 -59 0
10 66 0
-10 -66 0
10 89 0
-10 -89 0
10 119 0
-10 -119 0
10 125 0
-10 -125 0
10 126 0
-10 -126 0
11 22 0
-11 -22 0
11 46 0
-11 -46 0
11 174 0
-11 -174 0
11 177 0
-11 -177 0
12 15 0
-12 -15 0
12 16 0
-12 -16 0
12 53 0
-12 -53 0
12 83 0
-12 -83 0
12 122 0
-12 -122 0
12 128 0
-12 -128 0
12 136 0
-12 -136 0
12 140 0
-12 -140 0
12 153 0
-12 -153 0
12 168 0
-12 -168 0
13 21 0
-13 -21 0
13 32 0
-13 -32 0
13 85 0
-13 -85 0
13 115 0
-13 -115 0
13 152 0
-13 -152 0
14 50 0
-14 -50 0
14 52 0
-14 -52 0
14 83 0
-14 -83 0
14 97 0
-14 -97 0
14 106 0
-14 -106 0
14 138 0
-14 -138 0
14 150 0
-14 -150 0
14 166 0
-14 -166 0
14 168 0
-14 -168 0
15 27 0
-15 -27 0
15 29 0
-15 -29 0
15 36 0
-15 -36 0
15 85 0
-15 -85 0
15 161 0
-15 -161 0
15 164 0
-15 -164 0
16 36 0
-16 -36 0
16 55 0
-16 -55 0
16 74 0
-16 -74 0
16 81 0
-16 -81 0
16 103 0
-16 -103 0
16 112 0
-16 -112 0
16 132 0
-16 -132 0
16 145 0
-16 -145 0
16 146 0
-16 -146 0
16 156 0
-16 -156 0
17 31 0
-17 -31 0
17 83 0
-17 -83 0
17 90 0
-17 -90 0
17 93 0
-17 -93 0
17 103 0
-17 -103 0
17 108 0
-17 -108 0
17 120 0
-17 -120 0
17 126 0
-17 -126 0
17 127 0
-17 -127 0
17 132 0
-17 -132 0
17 141 0
-17 -141 0
17 160 0
-17 -160 0
18 37 0
-18 -37 0
18 66 0
-18 -66 0
18 88 0
-18 -88 0
18 95 0
-18 -95 0
18 115 0
-18 -115 0
18 134 0
-18 -134 0
18 144 0
-18 -144 0
18 151 0
-18 -151 0
18 171 0
-18 -171 0
19 35 0
-19 -35 0
19 40 0
-19 -40 0
19 60 0
-19 -60 0
19 65 0
-19 -65 0
19 79 0
-19 -79 0
19 125 0
-19 -125 0
19 168 0
-19 -168 0
20 24 0
-20 -24 0
20 108 0
-20 -108 0
20 136 0
-20 -136 0
21 32 0
-21 -32 0
21 76 0
-21 -76 0
21 100 0
-21 -100 0
21 109 0
-21 -109 0
21 142 0
-21 -142 0
21 153 0
-21 -153 0
21 159 0
-21 -159 0
21 171 0
-21 -171 0
22 31 0
-22 -31 0
22 55 0
-22 -55 0
22 59 0
-22 -59 0
22 67 0
-22 -67 0
22 71 0
-22 -71 0
22 82 0
-22 -82 0
22 91 0
-22 -91 0
23 52 0
-23 -52 0
23 59 0
-23 -59 0
23 101 0
-23 -101 0
23 125 0
-23 -125 0
23 126 0
-23 -126 0
23 174 0
-23 -174 0
24 39 0
-24 -39 0
24 52 0
-24 -52 0
24 59 0
-24 -59 0
24 79 0
-24 -79 0
24 166 0
-24 -166 0
24 171 0
-24 -171 0
25 66 0
-25 -66 0
25 78 0
-25 -78 0
25 105 0
-25 -105 0
25 122 0
-25 -122 0
25 158 0
-25 -158 0
26 66 0
-26 -66 0
26 118 0
-26 -118 0
26 124 0
-26 -124 0
26 172 0
-26 -172 0
26 176 0
-26 -176 0
27 114 0
-27 -114 0
27 123 0
-27 -123 0
27 180 0
-27 -180 0
28 45 0
-28 -45 0
28 87 0
-28 -87 0
28 97 0
-28 -97 0
28 121 0
-28 -121 0
28 135 0
-28 -135 0
28 168 0
-28 -168 0
28 178 0
-28 -178 0
29 79 0
-29 -79 0
29 86 0
-29 -86 0
29 106 0
-29 -106 0
29 125 0
-29 -125 0
29 173 0
-29 -173 0
29 178 0
-29 -178 0
30 31 0
-30 -31 0
30 51 0
-30 -51 0
30 88 0
-30 -88 0
30 126 0
-30 -126 0
30 134 0
-30 -134 0
30 174 0
-30 -174 0
30 176 0
-30 -176 0
31 68 0
-31 -68 0
31 88 0
-31 -88 0
31 108 0
-31 -108 0
32 60 0
-32 -60 0
32 64 0
-32 -64 0
32 92 0
-32 -92 0
32 113 0
-32 -113 0
32 144 0
-32 -144 0
32 153 0
-32 -153 0
32 178 0
-32 -178 0
33 66 0
-33 -66 0
33 160 0
-33 -160 0
33 168 0
-33 -168 0
34 39 0
-34 -39 0
34 43 0
-34 -43 0
34 74 0
-34 -74 0
34 76 0
-34 -76 0
34 91 0
-34 -91 0
34 124 0
-34 -124 0
34 133 0
-34 -133 0
34 172 0
-34 -172 0
35 65 0
-35 -65 0
35 67 0
-35 -67 0
35 72 0
-35 -72 0
35 74 0
-35 -74 0
35 143 0
-35 -143 0
35 153 0
-35 -153 0
35 164 0
-35 -164 0
36 39 0
-36 -39 0
36 49 0
-36 -49 0
36 61 0
-36 -61 0
36 84 0
-36 -84 0
36 94 0
-36 -94 0
36 101 0
-36 -101 0
36 108 0
-36 -108 0
36 113 0
-36 -113 0
36 145 0
-36 -145 0
36 178 0
-36 -178 0
37 76 0
-37 -76 0
37 99 0
-37 -99 0
37 113 0
-37 -113 0
38 67 0
-38 -67 0
38 86 0
-38 -86 0
38 131 0
-38 -131 0
38 179 0
-38 -179 0
39 62 0
-39 -62 0
39 68 0
-39 -68 0
39 70 0
-39 -70 0
39 71 0
-39 -71 0
39 73 0
-39 -73 0
39 91 0
-39 -91 0
39 113 0
-39 -113 0
39 145 0
-39 -145 0
39 152 0
-39 -152 0
40 68 0
-40 -68 0
40 93 0
-40 -93 0
40 103 0
-40 -103 0
40 104 0
-40 -104 0
40 121 0
-40 -121 0
40 141 0
-40 -141 0
40 168 0
-40 -168 0
41 57 0
-41 -57 0
41 64 0
-41 -64 0
41 68 0
-41 -68 0
41 101 0
-41 -101 0
41 139 0
-41 -139 0
41 160 0
-41 -160 0
41 175 0
-41 -175 0
42 45 0
-42 -45 0
42 107 0
-42 -107 0
42 108 0
-42 -108 0
42 132 0
-42 -132 0
43 90 0
-43 -90 0
43 97 0
-43 -97 0
43 131 0
-43 -131 0
43 166 0
-43 -166 0
44 67 0
-44 -67 0
44 72 0
-44 -72 0
44 106 0
-44 -106 0
44 149 0
-44 -149 0
44 154 0
-44 -154 0
45 49 0
-45 -49 0
45 57 0
-45 -57 0
45 78 0
-45 -78 0
45 80 0
-45 -80 0
45 96 0
-45 -96 0
45 107 0
-45 -107 0
45 108 0
-45 -108 0
45 148 0
-45 -148 0
45 149 0
-45 -149 0
45 156 0
-45 -156 0
45 165 0
-45 -165 0
45 169 0
-45 -169 0
45 180 0
-45 -180 0
46 72 0
-46 -72 0
46 97 0
-46 -97 0
46 107 0
-46 -107 0
46 141 0
-46 -141 0
46 176 0
-46 -176 0
47 87 0
-47 -87 0
47 103 0
-47 -103 0
47 123 0
-47 -123 0
47 152 0
-47 -152 0
47 175 0
-47 -175 0
47 176 0
-47 -176 0
48 52 0
-48 -52 0
48 57 0
-48 -57 0
48 110 0
-48 -110 0
48 171 0
-48 -171 0
48 175 0
-48 -175 0
49 52 0
-49 -52 0
49 117 0
-49 -117 0
49 133 0
-49 -133 0
50 106 0
-50 -106 0
50 129 0
-50 -129 0
51 149 0
-51 -149 0
52 63 0
-52 -63 0
52 105 0
-52 -105 0
52 109 0
-52 -109 0
52 111 0
-52 -111 0
52 146 0
-52 -146 0
52 161 0
-52 -161 0
53 58 0
-53 -58 0
53 66 0
-53 -66 0
53 84 0
-53 -84 0
53 110 0
-53 -110 0
53 123 0
-53 -123 0
53 157 0
-53 -157 0
54 116 0
-54 -116 0
54 117 0
-54 -117 0
54 139 0
-54 -139 0
54 168 0
-54 -168 0
55 111 0
-55 -111 0
55 121 0
-55 -121 0
55 139 0
-55 -139 0
55 143 0
-55 -143 0
55 164 0
-55 -164 0
55 179 0
-55 -179 0
56 82 0
-56 -82 0
56 94 0
-56 -94 0
56 95 0
-56 -95 0
56 100 0
-56 -100 0
56 124 0
-56 -124 0
56 135 0
-56 -135 0
56 141 0
-56 -141 0
56 168 0
-56 -168 0
56 178 0
-56 -178 0
57 72 0
-57 -72 0
57 93 0
-57 -93 0
57 94 0
-57 -94 0
57 104 0
-57 -104 0
57 111 0
-57 -111 0
57 126 0
-57 -126 0
57 131 0
-57 -131 0
57 149 0
-57 -149 0
57 150 0
-57 -150 0
57 155 0
-57 -155 0
57 178 0
-57 -178 0
58 100 0
-58 -100 0
58 114 0
-58 -114 0
58 134 0
-58 -134 0
58 151 0
-58 -151 0
58 166 0
-58 -166 0
58 176 0
-58 -176 0
59 69 0
-59 -69 0
59 109 0
-59 -109 0
59 114 0
-59 -114 0
59 130 0
-59 -130 0
59 167 0
-59 -167 0
60 92 0
-60 -92 0
60 109 0
-60 -109 0
60 122 0
-60 -122 0
60 129 0
-60 -129 0
60 176 0
-60 -176 0
61 97 0
-61 -97 0
62 86 0
-62 -86 0
62 89 0
-62 -89 0
62 113 0
-62 -113 0
62 129 0
-62 -129 0
62 139 0
-62 -139 0
62 146 0
-62 -146 0
62 151 0
-62 -151 0
62 165 0
-62 -165 0
63 74 0
-63 -74 0
63 78 0
-63 -78 0
63 90 0
-63 -90 0
63 116 0
-63 -116 0
63 126 0
-63 -126 0
63 158 0
-63 -158 0
63 171 0
-63 -171 0
63 176 0
-63 -176 0
64 102 0
-64 -102 0
64 130 0
-64 -130 0
64 139 0
-64 -139 0
64 163 0
-64 -163 0
64 166 0
-64 -166 0
65 76 0
-65 -76 0
65 83 0
-65 -83 0
65 119 0
-65 -119 0
65 138 0
-65 -138 0
65 156 0
-65 -156 0
66 76 0
-66 -76 0
66 155 0
-66 -155 0
67 112 0
-67 -112 0
67 122 0
-67 -122 0
67 125 0
-67 -125 0
67 162 0
-67 -162 0
67 170 0
-67 -170 0
68 72 0
-68 -72 0
69 85 0
-69 -85 0
69 100 0
-69 -100 0
69 108 0
-69 -108 0
69 130 0
-69 -130 0
69 135 0
-69 -135 0
69 155 0
-69 -155 0
69 171 0
-69 -171 0
69 178 0
-69 -178 0
70 78 0
-70 -78 0
70 82 0
-70 -82 0
70 105 0
-70 -105 0
70 106 0
-70 -106 0
70 107 0
-70 -107 0
70 129 0
-70 -129 0
70 161 0
-70 -161 0
70 163 0
-70 -163 0
70 175 0
-70 -175 0
71 81 0
-71 -81 0
71 99 0
-71 -99 0
71 103 0
-71 -103 0
71 120 0
-71 -120 0
72 95 0
-72 -95 0
72 142 0
-72 -142 0
72 164 0
-72 -164 0
72 175 0
-72 -175 0
73 105 0
-73 -105 0
73 138 0
-73 -138 0
73 149 0
-73 -149 0
74 122 0
-74 -122 0
74 136 0
-74 -136 0
74 147 0
-74 -147 0
75 125 0
-75 -125 0
75 155 0
-75 -155 0
76 100 0
-76 -100 0
76 116 0
-76 -116 0
76 132 0
-76 -132 0
77 93 0
-77 -93 0
77 109 0
-77 -109 0
77 126 0
-77 -126 0
77 134 0
-77 -134 0
77 136 0
-77 -136 0
77 144 0
-77 -144 0
78 115 0
-78 -115 0
78 175 0
-78 -175 0
79 110 0
-79 -110 0
79 115 0
-79 -115 0
79 135 0
-79 -135 0
80 104 0
-80 -104 0
80 107 0
-80 -107 0
80 122 0
-80 -122 0
80 125 0
-80 -125 0
80 127 0
-80 -127 0
80 135 0
-80 -135 0
80 152 0
-80 -152 0
80 180 0
-80 -180 0
81 120 0
-81 -120 0
81 134 0
-81 -134 0
81 157 0
-81 -157 0
82 135 0
-82 -135 0
82 164 0
-82 -164 0
83 120 0
-83 -120 0
83 126 0
-83 -126 0
83 130 0
-83 -130 0
83 133 0
-83 -133 0
83 134 0
-83 -134 0
83 147 0
-83 -147 0
83 153 0
-83 -153 0
83 154 0
-83 -154 0
84 121 0
-84 -121 0
84 147 0
-84 -147 0
85 88 0
-85 -88 0
85 128 0
-85 -128 0
86 88 0
-86 -88 0
86 120 0
-86 -120 0
86 169 0
-86 -169 0
86 175 0
-86 -175 0
87 93 0
-87 -93 0
87 129 0
-87 -129 0
87 158 0
-87 -158 0
88 92 0
-88 -92 0
89 140 0
-89 -140 0
89 157 0
-89 -157 0
90 92 0
-90 -92 0
90 116 0
-90 -116 0
90 125 0
-90 -125 0
90 131 0
-90 -131 0
90 163 0
-90 -163 0
92 126 0
-92 -126 0
92 127 0
-92 -127 0
92 155 0
-92 -155 0
93 151 0
-93 -151 0
93 172 0
-93 -172 0
94 143 0
-94 -143 0
95 123 0
-95 -123 0
95 151 0
-95 -151 0
96 113 0
-96 -113 0
96 132 0
-96 -132 0
96 136 0
-96 -136 0
96 138 0
-96 -138 0
96 159 0
-96 -159 0
96 166 0
-96 -166 0
96 173 0
-96 -173 0
97 128 0
-97 -128 0
97 131 0
-97 -131 0
97 154 0
-97 -154 0
98 119 0
-98 -119 0
98 134 0
-98 -134 0
98 135 0
-98 -135 0
98 139 0
-98 -139 0
99 105 0
-99 -105 0
99 136 0
-99 -136 0
99 175 0
-99 -175 0
100 125 0
-100 -125 0
100 145 0
-100 -145 0
100 157 0
-100 -157 0
101 109 0
-101 -109 0
101 138 0
-101 -138 0
102 112 0
-102 -112 0
102 155 0
-102 -155 0
102 168 0
-102 -168 0
102 174 0
-102 -174 0
102 179 0
-102 -179 0
103 118 0
-103 -118 0
103 122 0
-103 -122 0
103 123 0
-103 -123 0
103 137 0
-103 -137 0
103 138 0
-103 -138 0
103 146 0
-103 -146 0
103 175 0
-103 -175 0
104 125 0
-104 -125 0
105 132 0
-105 -132 0
105 175 0
-105 -175 0
106 109 0
-106 -109 0
107 134 0
-107 -134 0
107 154 0
-107 -154 0
107 166 0
-107 -166 0
107 171 0
-107 -171 0
108 144 0
-108 -144 0
108 169 0
-108 -169 0
108 179 0
-108 -179 0
109 162 0
-109 -162 0
109 180 0
-109 -180 0
110 156 0
-110 -156 0
110 173 0
-110 -173 0
110 178 0
-110 -178 0
111 122 0
-111 -122 0
111 140 0
-111 -140 0
112 113 0
-112 -113 0
113 140 0
-113 -140 0
113 153 0
-113 -153 0
113 161 0
-113 -161 0
114 118 0
-114 -118 0
114 132 0
-114 -132 0
115 126 0
-115 -126 0
115 166 0
-115 -166 0
116 120 0
-116 -120 0
116 161 0
-116 -161 0
116 177 0
-116 -177 0
117 142 0
-117 -142 0
117 148 0
-117 -148 0
118 135 0
-118 -135 0
118 156 0
-118 -156 0
119 142 0
-119 -142 0
120 132 0
-120 -132 0
121 152 0
-121 -152 0
121 155 0
-121 -155 0
121 163 0
-121 -163 0
122 136 0
-122 -136 0
122 152 0
-122 -152 0
122 176 0
-122 -176 0
123 126 0
-123 -126 0
123 144 0
-123 -144 0
123 151 0
-123 -151 0
123 153 0
-123 -153 0
123 178 0
-123 -178 0
125 148 0
-125 -148 0
126 136 0
-126 -136 0
126 160 0
-126 -160 0
127 141 0
-127 -141 0
127 149 0
-127 -149 0
128 153 0
-128 -153 0
128 160 0
-128 -160 0
130 137 0
-130 -137 0
130 140 0
-130 -140 0
130 162 0
-130 -162 0
131 160 0
-131 -160 0
132 146 0
-132 -146 0
132 153 0
-132 -153 0
132 161 0
-132 -161 0
132 172 0
-132 -172 0
133 140 0
-133 -140 0
133 149 0
-133 -149 0
133 176 0
-133 -176 0
134 179 0
-134 -179 0
135 147 0
-135 -147 0
135 162 0
-135 -162 0
136 169 0
-136 -169 0
137 168 0
-137 -168 0
137 180 0
-137 -180 0
138 153 0
-138 -153 0
138 170 0
-138 -170 0
139 170 0
-139 -170 0
140 178 0
-140 -178 0
141 167 0
-141 -167 0
142 170 0
-142 -170 0
143 147 0
-143 -147 0
143 170 0
-143 -170 0
144 157 0
-144 -157 0
144 163 0
-144 -163 0
144 172 0
-144 -172 0
145 151 0
-145 -151 0
145 166 0
-145 -166 0
145 168 0
-145 -168 0
145 170 0
-145 -170 0
145 172 0
-145 -172 0
145 173 0
-145 -173 0
145 180 0
-145 -180 0
146 154 0
-146 -154 0
147 171 0
-147 -171 0
151 153 0
-151 -153 0
153 168 0
-153 -168 0
156 158 0
-156 -158 0
156 171 0
-156 -171 0
158 165 0
-158 -165 0
158 177 0
-158 -177 0
158 178 0
-158 -178 0
162 172 0
-162 -172 0
164 177 0
-164 -177 0
165 174 0
-165 -174 0
167 168 0
-167 -168 0
170 173 0
-170 -173 0
173 174 0
-173 -174 0
