FourierSAT_Github_AIJ/res/fs_1core/s2v180c1300-2.cnf.txt
o 182
o 178
o 176
